NAME PortOpt_n20_m8_inst_1
ROWS
 N  OBJ
 E  budget  
 L  return  
 L  uncertain_risk
 L  fixed_risk
COLUMNS
    asset[0]  budget    1
    asset[0]  return    -3.6912488033225470e+00
    asset[1]  budget    1
    asset[1]  return    -4.7631121741948910e+00
    asset[2]  budget    1
    asset[2]  return    -2.7600982768646203e+00
    asset[3]  budget    1
    asset[3]  return    -2.2034131461110205e+00
    asset[4]  budget    1
    asset[4]  return    -4.4695833801947078e+00
    asset[5]  budget    1
    asset[5]  return    -2.3771144336676420e+00
    asset[6]  budget    1
    asset[6]  return    -4.2391560218641331e+00
    asset[7]  budget    1
    asset[7]  return    -3.9152252359220414e+00
    asset[8]  budget    1
    asset[8]  return    -1.1688143297852440e+00
    asset[9]  budget    1
    asset[9]  return    -3.2744781001075656e+00
    asset[10]  budget    1
    asset[10]  return    -1.2331888591999018e+00
    asset[11]  budget    1
    asset[11]  return    -1.5660472186611907e+00
    asset[12]  budget    1
    asset[12]  return    -1.4078488962810807e+00
    asset[13]  budget    1
    asset[13]  return    -3.9502139061509314e+00
    asset[14]  budget    1
    asset[14]  return    -3.2773448245124550e+00
    asset[15]  budget    1
    asset[15]  return    -4.4715406955334887e+00
    asset[16]  budget    1
    asset[16]  return    -4.5157447693380215e+00
    asset[17]  budget    1
    asset[17]  return    -1.0460330447589037e+00
    asset[18]  budget    1
    asset[18]  return    -3.1050386955662037e+00
    asset[19]  budget    1
    asset[19]  return    -1.6852392516327497e+00
    return_var  OBJ       -1
    return_var  return    1
    uncertain_risk_var  OBJ       1
    uncertain_risk_var  uncertain_risk  -1
    fixed_risk_var  OBJ       1
    fixed_risk_var  fixed_risk  -1
RHS
    RHS1      budget    1
BOUNDS
 FR BND1      asset[0]
 FR BND1      asset[1]
 FR BND1      asset[2]
 FR BND1      asset[3]
 FR BND1      asset[4]
 FR BND1      asset[5]
 FR BND1      asset[6]
 FR BND1      asset[7]
 FR BND1      asset[8]
 FR BND1      asset[9]
 FR BND1      asset[10]
 FR BND1      asset[11]
 FR BND1      asset[12]
 FR BND1      asset[13]
 FR BND1      asset[14]
 FR BND1      asset[15]
 FR BND1      asset[16]
 FR BND1      asset[17]
 FR BND1      asset[18]
 FR BND1      asset[19]
 FR BND1      return_var
 FR BND1      uncertain_risk_var
 FR BND1      fixed_risk_var
QCMATRIX   uncertain_risk
    asset[0]  asset[0]  1.6281025898028930e-02
    asset[0]  asset[1]  7.8633420033172342e-03
    asset[1]  asset[0]  7.8633420033172342e-03
    asset[0]  asset[2]  -4.6231076489238656e-03
    asset[2]  asset[0]  -4.6231076489238656e-03
    asset[0]  asset[3]  6.3712149977475478e-03
    asset[3]  asset[0]  6.3712149977475478e-03
    asset[0]  asset[4]  3.6590167965542741e-03
    asset[4]  asset[0]  3.6590167965542741e-03
    asset[0]  asset[5]  -1.6951929320152288e-02
    asset[5]  asset[0]  -1.6951929320152288e-02
    asset[0]  asset[6]  5.8971179827661127e-03
    asset[6]  asset[0]  5.8971179827661127e-03
    asset[0]  asset[7]  -6.7074030606220254e-03
    asset[7]  asset[0]  -6.7074030606220254e-03
    asset[0]  asset[8]  4.8888004958944249e-03
    asset[8]  asset[0]  4.8888004958944249e-03
    asset[0]  asset[9]  6.7048293876858876e-03
    asset[9]  asset[0]  6.7048293876858876e-03
    asset[0]  asset[10]  -1.7317639853321031e-03
    asset[10]  asset[0]  -1.7317639853321031e-03
    asset[0]  asset[11]  1.2096238353743537e-02
    asset[11]  asset[0]  1.2096238353743537e-02
    asset[0]  asset[12]  -5.1515034285135770e-03
    asset[12]  asset[0]  -5.1515034285135770e-03
    asset[0]  asset[13]  -3.8403822937581496e-03
    asset[13]  asset[0]  -3.8403822937581496e-03
    asset[0]  asset[14]  -6.1205985589157545e-03
    asset[14]  asset[0]  -6.1205985589157545e-03
    asset[0]  asset[15]  4.5021840908093072e-05
    asset[15]  asset[0]  4.5021840908093072e-05
    asset[0]  asset[16]  1.2688610199872905e-03
    asset[16]  asset[0]  1.2688610199872905e-03
    asset[0]  asset[17]  8.8354754214519677e-03
    asset[17]  asset[0]  8.8354754214519677e-03
    asset[0]  asset[18]  -1.9762888051061715e-03
    asset[18]  asset[0]  -1.9762888051061715e-03
    asset[0]  asset[19]  -5.0893586640127532e-03
    asset[19]  asset[0]  -5.0893586640127532e-03
    asset[1]  asset[1]  1.5672854564484386e-02
    asset[1]  asset[2]  7.2890652931438052e-03
    asset[2]  asset[1]  7.2890652931438052e-03
    asset[1]  asset[3]  1.2998646738673434e-03
    asset[3]  asset[1]  1.2998646738673434e-03
    asset[1]  asset[4]  -7.2654483542206900e-03
    asset[4]  asset[1]  -7.2654483542206900e-03
    asset[1]  asset[5]  -1.0271378503121372e-02
    asset[5]  asset[1]  -1.0271378503121372e-02
    asset[1]  asset[6]  -1.7553000830482141e-03
    asset[6]  asset[1]  -1.7553000830482141e-03
    asset[1]  asset[7]  -2.8044234389089885e-03
    asset[7]  asset[1]  -2.8044234389089885e-03
    asset[1]  asset[8]  -1.3043737219962501e-02
    asset[8]  asset[1]  -1.3043737219962501e-02
    asset[1]  asset[9]  -1.1103524963546170e-02
    asset[9]  asset[1]  -1.1103524963546170e-02
    asset[1]  asset[10]  -4.7419086991347375e-03
    asset[10]  asset[1]  -4.7419086991347375e-03
    asset[1]  asset[11]  1.9449374061129548e-02
    asset[11]  asset[1]  1.9449374061129548e-02
    asset[1]  asset[12]  -4.7765822627556841e-03
    asset[12]  asset[1]  -4.7765822627556841e-03
    asset[1]  asset[13]  -2.2168828820259737e-02
    asset[13]  asset[1]  -2.2168828820259737e-02
    asset[1]  asset[14]  2.5284423947085792e-02
    asset[14]  asset[1]  2.5284423947085792e-02
    asset[1]  asset[15]  -1.1188382757539313e-02
    asset[15]  asset[1]  -1.1188382757539313e-02
    asset[1]  asset[16]  9.3739864208817678e-03
    asset[16]  asset[1]  9.3739864208817678e-03
    asset[1]  asset[17]  -4.8866810130612382e-03
    asset[17]  asset[1]  -4.8866810130612382e-03
    asset[1]  asset[18]  7.1453656436085214e-03
    asset[18]  asset[1]  7.1453656436085214e-03
    asset[1]  asset[19]  1.1134376533553078e-02
    asset[19]  asset[1]  1.1134376533553078e-02
    asset[2]  asset[2]  1.9991054368470797e-02
    asset[2]  asset[3]  2.5637642087397148e-03
    asset[3]  asset[2]  2.5637642087397148e-03
    asset[2]  asset[4]  -9.8288902269450598e-03
    asset[4]  asset[2]  -9.8288902269450598e-03
    asset[2]  asset[5]  8.6475228853657004e-03
    asset[5]  asset[2]  8.6475228853657004e-03
    asset[2]  asset[6]  -1.2214991860326919e-02
    asset[6]  asset[2]  -1.2214991860326919e-02
    asset[2]  asset[7]  1.1550930877414588e-02
    asset[7]  asset[2]  1.1550930877414588e-02
    asset[2]  asset[8]  -2.7761416173321611e-02
    asset[8]  asset[2]  -2.7761416173321611e-02
    asset[2]  asset[9]  -1.9942031674709006e-02
    asset[9]  asset[2]  -1.9942031674709006e-02
    asset[2]  asset[10]  -1.1540345804115855e-03
    asset[10]  asset[2]  -1.1540345804115855e-03
    asset[2]  asset[11]  1.4020312649203188e-02
    asset[11]  asset[2]  1.4020312649203188e-02
    asset[2]  asset[12]  -1.0348103880358562e-03
    asset[12]  asset[2]  -1.0348103880358562e-03
    asset[2]  asset[13]  -1.7233081117767040e-02
    asset[13]  asset[2]  -1.7233081117767040e-02
    asset[2]  asset[14]  3.5549308942544613e-02
    asset[14]  asset[2]  3.5549308942544613e-02
    asset[2]  asset[15]  -1.3244728470413285e-02
    asset[15]  asset[2]  -1.3244728470413285e-02
    asset[2]  asset[16]  9.0483187595577184e-03
    asset[16]  asset[2]  9.0483187595577184e-03
    asset[2]  asset[17]  -1.8031398276770205e-02
    asset[17]  asset[2]  -1.8031398276770205e-02
    asset[2]  asset[18]  1.4359018479107151e-02
    asset[18]  asset[2]  1.4359018479107151e-02
    asset[2]  asset[19]  2.0192825903122380e-02
    asset[19]  asset[2]  2.0192825903122380e-02
    asset[3]  asset[3]  1.6854153450897132e-02
    asset[3]  asset[4]  2.0943733421031007e-03
    asset[4]  asset[3]  2.0943733421031007e-03
    asset[3]  asset[5]  -1.2163248193189194e-02
    asset[5]  asset[3]  -1.2163248193189194e-02
    asset[3]  asset[6]  4.5668266135955836e-03
    asset[6]  asset[3]  4.5668266135955836e-03
    asset[3]  asset[7]  1.4322829360423179e-03
    asset[7]  asset[3]  1.4322829360423179e-03
    asset[3]  asset[8]  -5.5872671072145115e-03
    asset[8]  asset[3]  -5.5872671072145115e-03
    asset[3]  asset[9]  -5.4648932519745170e-04
    asset[9]  asset[3]  -5.4648932519745170e-04
    asset[3]  asset[10]  3.3828644261994193e-03
    asset[10]  asset[3]  3.3828644261994193e-03
    asset[3]  asset[11]  3.7892759364369141e-03
    asset[11]  asset[3]  3.7892759364369141e-03
    asset[3]  asset[12]  -9.2905991265007024e-03
    asset[12]  asset[3]  -9.2905991265007024e-03
    asset[3]  asset[13]  5.0984545682496961e-03
    asset[13]  asset[3]  5.0984545682496961e-03
    asset[3]  asset[14]  -6.0424205686136247e-03
    asset[14]  asset[3]  -6.0424205686136247e-03
    asset[3]  asset[15]  5.2376648494810588e-03
    asset[15]  asset[3]  5.2376648494810588e-03
    asset[3]  asset[16]  1.5627643075888323e-03
    asset[16]  asset[3]  1.5627643075888323e-03
    asset[3]  asset[17]  -1.0297112692520178e-03
    asset[17]  asset[3]  -1.0297112692520178e-03
    asset[3]  asset[18]  1.3647514145921343e-04
    asset[18]  asset[3]  1.3647514145921343e-04
    asset[3]  asset[19]  8.3691357441566701e-03
    asset[19]  asset[3]  8.3691357441566701e-03
    asset[4]  asset[4]  1.7017037869948834e-02
    asset[4]  asset[5]  3.3075154358984294e-03
    asset[5]  asset[4]  3.3075154358984294e-03
    asset[4]  asset[6]  1.9121376016459817e-03
    asset[6]  asset[4]  1.9121376016459817e-03
    asset[4]  asset[7]  4.4897534339180013e-04
    asset[7]  asset[4]  4.4897534339180013e-04
    asset[4]  asset[8]  1.6776414889366691e-02
    asset[8]  asset[4]  1.6776414889366691e-02
    asset[4]  asset[9]  8.6861844986347945e-03
    asset[9]  asset[4]  8.6861844986347945e-03
    asset[4]  asset[10]  -5.5151661083506932e-03
    asset[10]  asset[4]  -5.5151661083506932e-03
    asset[4]  asset[11]  -3.5749528426811342e-03
    asset[11]  asset[4]  -3.5749528426811342e-03
    asset[4]  asset[12]  -3.0505747715645661e-03
    asset[12]  asset[4]  -3.0505747715645661e-03
    asset[4]  asset[13]  1.3720490777279874e-02
    asset[13]  asset[4]  1.3720490777279874e-02
    asset[4]  asset[14]  -2.0574979064524823e-02
    asset[14]  asset[4]  -2.0574979064524823e-02
    asset[4]  asset[15]  6.4177635272076082e-03
    asset[15]  asset[4]  6.4177635272076082e-03
    asset[4]  asset[16]  -3.9075917914989395e-03
    asset[16]  asset[4]  -3.9075917914989395e-03
    asset[4]  asset[17]  1.4690746693083978e-02
    asset[17]  asset[4]  1.4690746693083978e-02
    asset[4]  asset[18]  -3.8834913411933134e-03
    asset[18]  asset[4]  -3.8834913411933134e-03
    asset[4]  asset[19]  -1.1602247506370704e-02
    asset[19]  asset[4]  -1.1602247506370704e-02
    asset[5]  asset[5]  3.3039502581321226e-02
    asset[5]  asset[6]  -1.6404647576385087e-02
    asset[6]  asset[5]  -1.6404647576385087e-02
    asset[5]  asset[7]  1.3176495063545948e-02
    asset[7]  asset[5]  1.3176495063545948e-02
    asset[5]  asset[8]  -5.7153834186768632e-03
    asset[8]  asset[5]  -5.7153834186768632e-03
    asset[5]  asset[9]  -1.0404022186872681e-02
    asset[9]  asset[5]  -1.0404022186872681e-02
    asset[5]  asset[10]  -4.0558180710578880e-03
    asset[10]  asset[5]  -4.0558180710578880e-03
    asset[5]  asset[11]  -8.4739385786447713e-03
    asset[11]  asset[5]  -8.4739385786447713e-03
    asset[5]  asset[12]  9.5148489335414293e-03
    asset[12]  asset[5]  9.5148489335414293e-03
    asset[5]  asset[13]  4.2980832346465637e-03
    asset[13]  asset[5]  4.2980832346465637e-03
    asset[5]  asset[14]  1.2468842544392598e-02
    asset[14]  asset[5]  1.2468842544392598e-02
    asset[5]  asset[15]  -7.0634233702803794e-03
    asset[15]  asset[5]  -7.0634233702803794e-03
    asset[5]  asset[16]  -1.2257628623133726e-03
    asset[16]  asset[5]  -1.2257628623133726e-03
    asset[5]  asset[17]  -9.4763391012891180e-03
    asset[17]  asset[5]  -9.4763391012891180e-03
    asset[5]  asset[18]  9.0823561711074821e-03
    asset[18]  asset[5]  9.0823561711074821e-03
    asset[5]  asset[19]  1.6034757479938726e-03
    asset[19]  asset[5]  1.6034757479938726e-03
    asset[6]  asset[6]  1.4240451553651470e-02
    asset[6]  asset[7]  -1.0940336742340264e-02
    asset[7]  asset[6]  -1.0940336742340264e-02
    asset[6]  asset[8]  1.2114245855908218e-02
    asset[8]  asset[6]  1.2114245855908218e-02
    asset[6]  asset[9]  1.3148376946087673e-02
    asset[9]  asset[6]  1.3148376946087673e-02
    asset[6]  asset[10]  4.4857668695569702e-03
    asset[10]  asset[6]  4.4857668695569702e-03
    asset[6]  asset[11]  -7.3903579992695449e-03
    asset[11]  asset[6]  -7.3903579992695449e-03
    asset[6]  asset[12]  -2.0688206134736112e-03
    asset[12]  asset[6]  -2.0688206134736112e-03
    asset[6]  asset[13]  8.7279008085221575e-03
    asset[13]  asset[6]  8.7279008085221575e-03
    asset[6]  asset[14]  -2.2962623429937004e-02
    asset[14]  asset[6]  -2.2962623429937004e-02
    asset[6]  asset[15]  1.2104104612408427e-02
    asset[15]  asset[6]  1.2104104612408427e-02
    asset[6]  asset[16]  -5.1098418254385122e-03
    asset[16]  asset[6]  -5.1098418254385122e-03
    asset[6]  asset[17]  1.1474749498346305e-02
    asset[17]  asset[6]  1.1474749498346305e-02
    asset[6]  asset[18]  -1.1441273135624645e-02
    asset[18]  asset[6]  -1.1441273135624645e-02
    asset[6]  asset[19]  -7.8725207603150982e-03
    asset[19]  asset[6]  -7.8725207603150982e-03
    asset[7]  asset[7]  2.7390627710371870e-02
    asset[7]  asset[8]  -1.6351811859462342e-02
    asset[8]  asset[7]  -1.6351811859462342e-02
    asset[7]  asset[9]  -1.1440388332782259e-02
    asset[9]  asset[7]  -1.1440388332782259e-02
    asset[7]  asset[10]  -7.1330314028985580e-03
    asset[10]  asset[7]  -7.1330314028985580e-03
    asset[7]  asset[11]  1.2610088756257501e-02
    asset[11]  asset[7]  1.2610088756257501e-02
    asset[7]  asset[12]  -1.3109487938188012e-03
    asset[12]  asset[7]  -1.3109487938188012e-03
    asset[7]  asset[13]  -7.2468624965290000e-03
    asset[13]  asset[7]  -7.2468624965290000e-03
    asset[7]  asset[14]  2.1676886773646119e-02
    asset[14]  asset[7]  2.1676886773646119e-02
    asset[7]  asset[15]  -1.2132520728595556e-02
    asset[15]  asset[7]  -1.2132520728595556e-02
    asset[7]  asset[16]  1.0179347983807572e-02
    asset[16]  asset[7]  1.0179347983807572e-02
    asset[7]  asset[17]  -5.6139387219353819e-03
    asset[17]  asset[7]  -5.6139387219353819e-03
    asset[7]  asset[18]  1.1982077681142188e-02
    asset[18]  asset[7]  1.1982077681142188e-02
    asset[7]  asset[19]  6.1475271118449186e-03
    asset[19]  asset[7]  6.1475271118449186e-03
    asset[8]  asset[8]  4.7399486556463137e-02
    asset[8]  asset[9]  3.1906522883069013e-02
    asset[9]  asset[8]  3.1906522883069013e-02
    asset[8]  asset[10]  2.9441504385406035e-03
    asset[10]  asset[8]  2.9441504385406035e-03
    asset[8]  asset[11]  -2.1995966711706626e-02
    asset[11]  asset[8]  -2.1995966711706626e-02
    asset[8]  asset[12]  4.3079764921322519e-04
    asset[12]  asset[8]  4.3079764921322519e-04
    asset[8]  asset[13]  2.7349696256155673e-02
    asset[13]  asset[8]  2.7349696256155673e-02
    asset[8]  asset[14]  -5.3755510762653017e-02
    asset[14]  asset[8]  -5.3755510762653017e-02
    asset[8]  asset[15]  2.0047453016277108e-02
    asset[15]  asset[8]  2.0047453016277108e-02
    asset[8]  asset[16]  -1.6169655041317663e-02
    asset[16]  asset[8]  -1.6169655041317663e-02
    asset[8]  asset[17]  2.5098768634719364e-02
    asset[17]  asset[8]  2.5098768634719364e-02
    asset[8]  asset[18]  -2.2000757298255812e-02
    asset[18]  asset[8]  -2.2000757298255812e-02
    asset[8]  asset[19]  -3.2919631049809620e-02
    asset[19]  asset[8]  -3.2919631049809620e-02
    asset[9]  asset[9]  2.9872060578151133e-02
    asset[9]  asset[10]  8.0439888772488762e-03
    asset[10]  asset[9]  8.0439888772488762e-03
    asset[9]  asset[11]  -1.6119397432675365e-02
    asset[11]  asset[9]  -1.6119397432675365e-02
    asset[9]  asset[12]  1.6829910908545084e-03
    asset[12]  asset[9]  1.6829910908545084e-03
    asset[9]  asset[13]  2.1839846878499429e-02
    asset[13]  asset[9]  2.1839846878499429e-02
    asset[9]  asset[14]  -4.4633748746821786e-02
    asset[14]  asset[9]  -4.4633748746821786e-02
    asset[9]  asset[15]  1.8684141193231862e-02
    asset[15]  asset[9]  1.8684141193231862e-02
    asset[9]  asset[16]  -1.4245230533759262e-02
    asset[16]  asset[9]  -1.4245230533759262e-02
    asset[9]  asset[17]  1.9687297161516324e-02
    asset[17]  asset[9]  1.9687297161516324e-02
    asset[9]  asset[18]  -1.9450997187613436e-02
    asset[18]  asset[9]  -1.9450997187613436e-02
    asset[9]  asset[19]  -2.6832538741107925e-02
    asset[19]  asset[9]  -2.6832538741107925e-02
    asset[10]  asset[10]  1.1686520292446887e-02
    asset[10]  asset[11]  -1.2923913548091892e-02
    asset[11]  asset[10]  -1.2923913548091892e-02
    asset[10]  asset[12]  2.4413689831672292e-03
    asset[12]  asset[10]  2.4413689831672292e-03
    asset[10]  asset[13]  1.0661197941022806e-02
    asset[13]  asset[10]  1.0661197941022806e-02
    asset[10]  asset[14]  -1.4612208346591601e-02
    asset[14]  asset[10]  -1.4612208346591601e-02
    asset[10]  asset[15]  9.7487517870399124e-03
    asset[15]  asset[10]  9.7487517870399124e-03
    asset[10]  asset[16]  -7.8396347112130570e-03
    asset[16]  asset[10]  -7.8396347112130570e-03
    asset[10]  asset[17]  -4.3916660520882857e-03
    asset[17]  asset[10]  -4.3916660520882857e-03
    asset[10]  asset[18]  -7.0608346716242720e-03
    asset[18]  asset[10]  -7.0608346716242720e-03
    asset[10]  asset[19]  -1.3035537431994768e-03
    asset[19]  asset[10]  -1.3035537431994768e-03
    asset[11]  asset[11]  3.9525559943642832e-02
    asset[11]  asset[12]  -9.8632055598178378e-03
    asset[12]  asset[11]  -9.8632055598178378e-03
    asset[11]  asset[13]  -3.5225945519860219e-02
    asset[13]  asset[11]  -3.5225945519860219e-02
    asset[11]  asset[14]  4.2999798977319675e-02
    asset[14]  asset[11]  4.2999798977319675e-02
    asset[11]  asset[15]  -2.0472129907139657e-02
    asset[15]  asset[11]  -2.0472129907139657e-02
    asset[11]  asset[16]  1.7985473452940250e-02
    asset[16]  asset[11]  1.7985473452940250e-02
    asset[11]  asset[17]  -7.1649897183410482e-04
    asset[17]  asset[11]  -7.1649897183410482e-04
    asset[11]  asset[18]  1.4495180747596448e-02
    asset[18]  asset[11]  1.4495180747596448e-02
    asset[11]  asset[19]  1.2526438336222436e-02
    asset[19]  asset[11]  1.2526438336222436e-02
    asset[12]  asset[12]  1.0646672562012103e-02
    asset[12]  asset[13]  5.1496137438753788e-03
    asset[13]  asset[12]  5.1496137438753788e-03
    asset[12]  asset[14]  -3.0108193978480350e-03
    asset[14]  asset[12]  -3.0108193978480350e-03
    asset[12]  asset[15]  -8.0502059240845220e-04
    asset[15]  asset[12]  -8.0502059240845220e-04
    asset[12]  asset[16]  -4.3808138921858234e-03
    asset[16]  asset[12]  -4.3808138921858234e-03
    asset[12]  asset[17]  -3.4450717281386519e-03
    asset[17]  asset[12]  -3.4450717281386519e-03
    asset[12]  asset[18]  -8.5986931086584982e-06
    asset[18]  asset[12]  -8.5986931086584982e-06
    asset[12]  asset[19]  -5.2930758821887530e-03
    asset[19]  asset[12]  -5.2930758821887530e-03
    asset[13]  asset[13]  4.4144268000025438e-02
    asset[13]  asset[14]  -5.5851163624375713e-02
    asset[14]  asset[13]  -5.5851163624375713e-02
    asset[13]  asset[15]  2.2784699801078803e-02
    asset[15]  asset[13]  2.2784699801078803e-02
    asset[13]  asset[16]  -1.8049698786060830e-02
    asset[16]  asset[13]  -1.8049698786060830e-02
    asset[13]  asset[17]  8.0808105014618867e-03
    asset[17]  asset[13]  8.0808105014618867e-03
    asset[13]  asset[18]  -1.4413399296901629e-02
    asset[18]  asset[13]  -1.4413399296901629e-02
    asset[13]  asset[19]  -1.8046493126766955e-02
    asset[19]  asset[13]  -1.8046493126766955e-02
    asset[14]  asset[14]  8.9287438515080142e-02
    asset[14]  asset[15]  -3.7026662596817403e-02
    asset[15]  asset[14]  -3.7026662596817403e-02
    asset[14]  asset[16]  2.6913738026480952e-02
    asset[16]  asset[14]  2.6913738026480952e-02
    asset[14]  asset[17]  -2.6980837856750213e-02
    asset[17]  asset[14]  -2.6980837856750213e-02
    asset[14]  asset[18]  3.0674053245414452e-02
    asset[18]  asset[14]  3.0674053245414452e-02
    asset[14]  asset[19]  3.7650801128977118e-02
    asset[19]  asset[14]  3.7650801128977118e-02
    asset[15]  asset[15]  2.0409913052317818e-02
    asset[15]  asset[16]  -1.2882197486752314e-02
    asset[16]  asset[15]  -1.2882197486752314e-02
    asset[15]  asset[17]  1.0765594831389710e-02
    asset[17]  asset[15]  1.0765594831389710e-02
    asset[15]  asset[18]  -1.5630941805951256e-02
    asset[18]  asset[15]  -1.5630941805951256e-02
    asset[15]  asset[19]  -1.1457629589318889e-02
    asset[19]  asset[15]  -1.1457629589318889e-02
    asset[16]  asset[16]  1.1777483014291214e-02
    asset[16]  asset[17]  -5.1336964989041403e-03
    asset[17]  asset[16]  -5.1336964989041403e-03
    asset[16]  asset[18]  1.0396674658452888e-02
    asset[18]  asset[16]  1.0396674658452888e-02
    asset[16]  asset[19]  1.1592140812507288e-02
    asset[19]  asset[16]  1.1592140812507288e-02
    asset[17]  asset[17]  2.6435413399245284e-02
    asset[17]  asset[18]  -1.2689042205684960e-02
    asset[18]  asset[17]  -1.2689042205684960e-02
    asset[17]  asset[19]  -2.1286220755522028e-02
    asset[19]  asset[17]  -2.1286220755522028e-02
    asset[18]  asset[18]  1.5516390733193426e-02
    asset[18]  asset[19]  1.5150120422504052e-02
    asset[19]  asset[18]  1.5150120422504052e-02
    asset[19]  asset[19]  3.0887424328840476e-02
QCMATRIX   fixed_risk
    asset[0]  asset[0]  1.6136643040408072e-03
    asset[1]  asset[1]  1.4707196022736089e-03
    asset[2]  asset[2]  1.8723035033883257e-03
    asset[3]  asset[3]  1.5515889633119853e-03
    asset[4]  asset[4]  1.7946756735008136e-03
    asset[5]  asset[5]  3.2704495415589287e-03
    asset[6]  asset[6]  1.3969284053322465e-03
    asset[7]  asset[7]  2.5796607067525355e-03
    asset[8]  asset[8]  4.7733050551519995e-03
    asset[9]  asset[9]  3.0649983861405477e-03
    asset[10]  asset[10]  1.1148496309309221e-03
    asset[11]  asset[11]  4.3478443225946238e-03
    asset[12]  asset[12]  1.0110682001862176e-03
    asset[13]  asset[13]  4.7502854719610977e-03
    asset[14]  asset[14]  9.8905907278242534e-03
    asset[15]  asset[15]  2.0841045305895920e-03
    asset[16]  asset[16]  1.3304341502565944e-03
    asset[17]  asset[17]  2.5075009443123243e-03
    asset[18]  asset[18]  1.7848130695835929e-03
    asset[19]  asset[19]  2.8893996219695214e-03
ENDATA
